c colouring generated by benchmark framework
p edge 1800 110682
v 1 1
v 2 16
v 3 15
v 4 5
v 5 16
v 6 17
v 7 5
v 8 21
v 9 15
v 10 21
v 11 19
v 12 23
v 13 18
v 14 17
v 15 18
v 16 24
v 17 25
v 18 13
v 19 6
v 20 1
v 21 24
v 22 0
v 23 0
v 24 9
v 25 10
v 26 12
v 27 21
v 28 14
v 29 6
v 30 7
v 31 8
v 32 20
v 33 24
v 34 21
v 35 19
v 36 2
v 37 9
v 38 17
v 39 20
v 40 25
v 41 11
v 42 25
v 43 5
v 44 26
v 45 10
v 46 8
v 47 13
v 48 24
v 49 19
v 50 12
v 51 21
v 52 16
v 53 3
v 54 19
v 55 22
v 56 18
v 57 5
v 58 13
v 59 8
v 60 21
v 61 24
v 62 23
v 63 15
v 64 24
v 65 5
v 66 11
v 67 4
v 68 21
v 69 13
v 70 17
v 71 17
v 72 18
v 73 25
v 74 21
v 75 21
v 76 10
v 77 21
v 78 16
v 79 19
v 80 25
v 81 7
v 82 24
v 83 1
v 84 12
v 85 22
v 86 21
v 87 20
v 88 14
v 89 10
v 90 25
v 91 21
v 92 21
v 93 20
v 94 8
v 95 3
v 96 5
v 97 19
v 98 10
v 99 23
v 100 25
v 101 4
v 102 13
v 103 20
v 104 25
v 105 24
v 106 3
v 107 8
v 108 18
v 109 5
v 110 24
v 111 18
v 112 18
v 113 1
v 114 9
v 115 18
v 116 22
v 117 14
v 118 9
v 119 3
v 120 1
v 121 4
v 122 21
v 123 12
v 124 0
v 125 1
v 126 1
v 127 22
v 128 3
v 129 26
v 130 10
v 131 14
v 132 12
v 133 16
v 134 5
v 135 16
v 136 12
v 137 9
v 138 22
v 139 6
v 140 15
v 141 19
v 142 16
v 143 3
v 144 8
v 145 3
v 146 21
v 147 25
v 148 26
v 149 9
v 150 5
v 151 9
v 152 9
v 153 17
v 154 24
v 155 24
v 156 26
v 157 6
v 158 19
v 159 24
v 160 24
v 161 15
v 162 20
v 163 13
v 164 0
v 165 9
v 166 24
v 167 19
v 168 26
v 169 1
v 170 18
v 171 16
v 172 25
v 173 21
v 174 25
v 175 16
v 176 9
v 177 20
v 178 21
v 179 6
v 180 26
v 181 5
v 182 25
v 183 23
v 184 0
v 185 22
v 186 9
v 187 22
v 188 21
v 189 26
v 190 6
v 191 1
v 192 16
v 193 10
v 194 20
v 195 15
v 196 22
v 197 5
v 198 17
v 199 19
v 200 2
v 201 10
v 202 8
v 203 23
v 204 22
v 205 12
v 206 17
v 207 19
v 208 21
v 209 22
v 210 9
v 211 17
v 212 5
v 213 20
v 214 17
v 215 18
v 216 15
v 217 17
v 218 7
v 219 22
v 220 15
v 221 23
v 222 15
v 223 6
v 224 7
v 225 18
v 226 15
v 227 23
v 228 12
v 229 7
v 230 10
v 231 18
v 232 19
v 233 22
v 234 17
v 235 26
v 236 0
v 237 13
v 238 12
v 239 7
v 240 26
v 241 14
v 242 17
v 243 0
v 244 6
v 245 14
v 246 7
v 247 21
v 248 20
v 249 18
v 250 21
v 251 10
v 252 11
v 253 0
v 254 14
v 255 25
v 256 22
v 257 17
v 258 26
v 259 25
v 260 9
v 261 23
v 262 0
v 263 14
v 264 5
v 265 8
v 266 19
v 267 26
v 268 26
v 269 24
v 270 24
v 271 20
v 272 16
v 273 8
v 274 14
v 275 8
v 276 15
v 277 19
v 278 17
v 279 13
v 280 7
v 281 15
v 282 16
v 283 5
v 284 1
v 285 4
v 286 11
v 287 15
v 288 3
v 289 9
v 290 5
v 291 17
v 292 20
v 293 13
v 294 24
v 295 14
v 296 8
v 297 18
v 298 26
v 299 1
v 300 20
v 301 13
v 302 3
v 303 21
v 304 8
v 305 9
v 306 11
v 307 19
v 308 24
v 309 9
v 310 17
v 311 16
v 312 6
v 313 14
v 314 1
v 315 8
v 316 18
v 317 0
v 318 3
v 319 15
v 320 11
v 321 23
v 322 21
v 323 7
v 324 0
v 325 25
v 326 12
v 327 3
v 328 11
v 329 8
v 330 20
v 331 20
v 332 15
v 333 7
v 334 4
v 335 6
v 336 11
v 337 26
v 338 11
v 339 22
v 340 6
v 341 20
v 342 13
v 343 16
v 344 3
v 345 18
v 346 18
v 347 6
v 348 2
v 349 9
v 350 2
v 351 8
v 352 12
v 353 6
v 354 26
v 355 25
v 356 19
v 357 12
v 358 24
v 359 3
v 360 3
v 361 25
v 362 15
v 363 22
v 364 13
v 365 1
v 366 3
v 367 8
v 368 15
v 369 20
v 370 13
v 371 5
v 372 23
v 373 9
v 374 23
v 375 3
v 376 14
v 377 19
v 378 23
v 379 15
v 380 26
v 381 1
v 382 21
v 383 18
v 384 17
v 385 18
v 386 23
v 387 15
v 388 16
v 389 11
v 390 22
v 391 4
v 392 2
v 393 11
v 394 22
v 395 23
v 396 6
v 397 5
v 398 7
v 399 15
v 400 19
v 401 25
v 402 2
v 403 2
v 404 6
v 405 0
v 406 25
v 407 3
v 408 26
v 409 9
v 410 8
v 411 17
v 412 17
v 413 17
v 414 2
v 415 7
v 416 0
v 417 16
v 418 14
v 419 15
v 420 8
v 421 15
v 422 25
v 423 7
v 424 19
v 425 14
v 426 11
v 427 18
v 428 0
v 429 1
v 430 0
v 431 8
v 432 2
v 433 25
v 434 17
v 435 15
v 436 0
v 437 24
v 438 6
v 439 19
v 440 11
v 441 25
v 442 15
v 443 6
v 444 14
v 445 9
v 446 22
v 447 17
v 448 2
v 449 22
v 450 14
v 451 10
v 452 16
v 453 22
v 454 7
v 455 13
v 456 15
v 457 15
v 458 19
v 459 18
v 460 3
v 461 24
v 462 5
v 463 2
v 464 14
v 465 7
v 466 5
v 467 20
v 468 25
v 469 18
v 470 10
v 471 25
v 472 17
v 473 16
v 474 13
v 475 0
v 476 4
v 477 20
v 478 7
v 479 23
v 480 11
v 481 7
v 482 22
v 483 16
v 484 9
v 485 22
v 486 23
v 487 13
v 488 26
v 489 8
v 490 14
v 491 7
v 492 7
v 493 4
v 494 3
v 495 26
v 496 25
v 497 6
v 498 5
v 499 6
v 500 11
v 501 19
v 502 8
v 503 23
v 504 14
v 505 5
v 506 5
v 507 2
v 508 3
v 509 20
v 510 25
v 511 17
v 512 10
v 513 8
v 514 2
v 515 20
v 516 3
v 517 22
v 518 9
v 519 19
v 520 18
v 521 13
v 522 9
v 523 26
v 524 24
v 525 9
v 526 9
v 527 25
v 528 12
v 529 11
v 530 9
v 531 14
v 532 26
v 533 21
v 534 23
v 535 0
v 536 7
v 537 0
v 538 19
v 539 1
v 540 9
v 541 11
v 542 16
v 543 22
v 544 0
v 545 14
v 546 23
v 547 6
v 548 6
v 549 12
v 550 16
v 551 26
v 552 19
v 553 13
v 554 18
v 555 4
v 556 23
v 557 10
v 558 9
v 559 1
v 560 23
v 561 20
v 562 21
v 563 23
v 564 3
v 565 5
v 566 20
v 567 17
v 568 18
v 569 15
v 570 9
v 571 9
v 572 24
v 573 2
v 574 23
v 575 26
v 576 21
v 577 19
v 578 22
v 579 20
v 580 3
v 581 14
v 582 6
v 583 21
v 584 15
v 585 16
v 586 17
v 587 10
v 588 24
v 589 18
v 590 14
v 591 16
v 592 25
v 593 15
v 594 1
v 595 17
v 596 8
v 597 23
v 598 22
v 599 15
v 600 18
v 601 11
v 602 25
v 603 7
v 604 19
v 605 12
v 606 26
v 607 18
v 608 22
v 609 2
v 610 22
v 611 9
v 612 25
v 613 15
v 614 15
v 615 4
v 616 24
v 617 12
v 618 6
v 619 23
v 620 26
v 621 11
v 622 12
v 623 8
v 624 1
v 625 3
v 626 0
v 627 7
v 628 12
v 629 3
v 630 21
v 631 18
v 632 0
v 633 11
v 634 4
v 635 24
v 636 8
v 637 1
v 638 25
v 639 7
v 640 17
v 641 22
v 642 3
v 643 2
v 644 0
v 645 7
v 646 13
v 647 21
v 648 12
v 649 9
v 650 20
v 651 2
v 652 4
v 653 21
v 654 26
v 655 24
v 656 21
v 657 6
v 658 13
v 659 10
v 660 8
v 661 24
v 662 17
v 663 25
v 664 17
v 665 23
v 666 25
v 667 14
v 668 8
v 669 14
v 670 4
v 671 20
v 672 8
v 673 21
v 674 23
v 675 9
v 676 13
v 677 9
v 678 26
v 679 26
v 680 15
v 681 14
v 682 9
v 683 2
v 684 14
v 685 13
v 686 16
v 687 7
v 688 12
v 689 14
v 690 7
v 691 23
v 692 3
v 693 17
v 694 5
v 695 11
v 696 21
v 697 4
v 698 13
v 699 26
v 700 18
v 701 18
v 702 4
v 703 0
v 704 0
v 705 13
v 706 9
v 707 4
v 708 8
v 709 2
v 710 7
v 711 19
v 712 6
v 713 24
v 714 20
v 715 17
v 716 24
v 717 8
v 718 12
v 719 12
v 720 7
v 721 10
v 722 15
v 723 10
v 724 18
v 725 12
v 726 3
v 727 13
v 728 22
v 729 24
v 730 1
v 731 10
v 732 25
v 733 3
v 734 15
v 735 26
v 736 3
v 737 17
v 738 26
v 739 26
v 740 22
v 741 16
v 742 5
v 743 24
v 744 4
v 745 9
v 746 8
v 747 2
v 748 18
v 749 24
v 750 25
v 751 4
v 752 16
v 753 22
v 754 4
v 755 21
v 756 19
v 757 7
v 758 1
v 759 7
v 760 9
v 761 9
v 762 4
v 763 5
v 764 19
v 765 1
v 766 13
v 767 23
v 768 7
v 769 4
v 770 19
v 771 19
v 772 12
v 773 5
v 774 3
v 775 10
v 776 15
v 777 25
v 778 17
v 779 8
v 780 21
v 781 0
v 782 10
v 783 18
v 784 11
v 785 13
v 786 2
v 787 17
v 788 18
v 789 0
v 790 25
v 791 18
v 792 15
v 793 6
v 794 9
v 795 12
v 796 23
v 797 24
v 798 14
v 799 23
v 800 20
v 801 5
v 802 13
v 803 21
v 804 2
v 805 12
v 806 11
v 807 18
v 808 6
v 809 6
v 810 19
v 811 13
v 812 0
v 813 19
v 814 9
v 815 18
v 816 21
v 817 26
v 818 14
v 819 7
v 820 6
v 821 23
v 822 21
v 823 10
v 824 10
v 825 16
v 826 16
v 827 16
v 828 1
v 829 7
v 830 22
v 831 21
v 832 24
v 833 5
v 834 2
v 835 9
v 836 23
v 837 26
v 838 19
v 839 8
v 840 18
v 841 6
v 842 11
v 843 14
v 844 17
v 845 26
v 846 16
v 847 16
v 848 8
v 849 2
v 850 25
v 851 1
v 852 0
v 853 9
v 854 21
v 855 19
v 856 18
v 857 24
v 858 6
v 859 9
v 860 26
v 861 8
v 862 9
v 863 1
v 864 2
v 865 11
v 866 16
v 867 26
v 868 9
v 869 11
v 870 10
v 871 12
v 872 12
v 873 10
v 874 2
v 875 7
v 876 24
v 877 17
v 878 20
v 879 26
v 880 10
v 881 8
v 882 9
v 883 6
v 884 0
v 885 10
v 886 21
v 887 9
v 888 19
v 889 4
v 890 25
v 891 3
v 892 8
v 893 1
v 894 13
v 895 13
v 896 19
v 897 21
v 898 6
v 899 1
v 900 12
v 901 7
v 902 2
v 903 9
v 904 19
v 905 13
v 906 16
v 907 14
v 908 13
v 909 14
v 910 9
v 911 13
v 912 17
v 913 16
v 914 6
v 915 16
v 916 22
v 917 25
v 918 21
v 919 25
v 920 11
v 921 1
v 922 23
v 923 24
v 924 23
v 925 2
v 926 18
v 927 8
v 928 23
v 929 20
v 930 5
v 931 14
v 932 0
v 933 6
v 934 4
v 935 11
v 936 17
v 937 15
v 938 4
v 939 21
v 940 12
v 941 16
v 942 5
v 943 14
v 944 8
v 945 24
v 946 3
v 947 15
v 948 2
v 949 6
v 950 6
v 951 7
v 952 1
v 953 22
v 954 13
v 955 13
v 956 5
v 957 13
v 958 8
v 959 14
v 960 26
v 961 17
v 962 5
v 963 22
v 964 13
v 965 21
v 966 1
v 967 7
v 968 14
v 969 18
v 970 21
v 971 4
v 972 24
v 973 18
v 974 21
v 975 22
v 976 13
v 977 6
v 978 10
v 979 26
v 980 26
v 981 9
v 982 14
v 983 20
v 984 2
v 985 11
v 986 23
v 987 21
v 988 5
v 989 26
v 990 19
v 991 12
v 992 8
v 993 17
v 994 5
v 995 15
v 996 1
v 997 14
v 998 11
v 999 20
v 1000 23
v 1001 17
v 1002 26
v 1003 22
v 1004 1
v 1005 2
v 1006 3
v 1007 15
v 1008 20
v 1009 11
v 1010 7
v 1011 11
v 1012 23
v 1013 26
v 1014 22
v 1015 10
v 1016 0
v 1017 19
v 1018 1
v 1019 26
v 1020 19
v 1021 21
v 1022 16
v 1023 25
v 1024 4
v 1025 13
v 1026 24
v 1027 26
v 1028 21
v 1029 4
v 1030 14
v 1031 4
v 1032 1
v 1033 25
v 1034 9
v 1035 4
v 1036 23
v 1037 10
v 1038 5
v 1039 5
v 1040 11
v 1041 22
v 1042 19
v 1043 1
v 1044 22
v 1045 3
v 1046 5
v 1047 10
v 1048 12
v 1049 5
v 1050 19
v 1051 5
v 1052 4
v 1053 16
v 1054 3
v 1055 15
v 1056 0
v 1057 22
v 1058 13
v 1059 6
v 1060 13
v 1061 3
v 1062 7
v 1063 3
v 1064 21
v 1065 5
v 1066 16
v 1067 2
v 1068 4
v 1069 7
v 1070 8
v 1071 13
v 1072 4
v 1073 23
v 1074 20
v 1075 26
v 1076 1
v 1077 24
v 1078 10
v 1079 11
v 1080 3
v 1081 24
v 1082 4
v 1083 10
v 1084 10
v 1085 3
v 1086 13
v 1087 23
v 1088 6
v 1089 19
v 1090 18
v 1091 15
v 1092 16
v 1093 17
v 1094 16
v 1095 11
v 1096 1
v 1097 25
v 1098 3
v 1099 14
v 1100 18
v 1101 2
v 1102 5
v 1103 2
v 1104 7
v 1105 0
v 1106 25
v 1107 26
v 1108 24
v 1109 22
v 1110 4
v 1111 23
v 1112 11
v 1113 23
v 1114 14
v 1115 18
v 1116 25
v 1117 16
v 1118 6
v 1119 3
v 1120 25
v 1121 11
v 1122 3
v 1123 18
v 1124 17
v 1125 17
v 1126 4
v 1127 25
v 1128 0
v 1129 10
v 1130 20
v 1131 2
v 1132 12
v 1133 14
v 1134 22
v 1135 15
v 1136 21
v 1137 2
v 1138 5
v 1139 18
v 1140 23
v 1141 15
v 1142 10
v 1143 20
v 1144 25
v 1145 2
v 1146 7
v 1147 0
v 1148 14
v 1149 7
v 1150 5
v 1151 8
v 1152 14
v 1153 6
v 1154 21
v 1155 1
v 1156 25
v 1157 14
v 1158 14
v 1159 10
v 1160 14
v 1161 2
v 1162 8
v 1163 10
v 1164 0
v 1165 16
v 1166 8
v 1167 22
v 1168 11
v 1169 23
v 1170 13
v 1171 0
v 1172 4
v 1173 24
v 1174 10
v 1175 20
v 1176 4
v 1177 9
v 1178 25
v 1179 16
v 1180 21
v 1181 18
v 1182 26
v 1183 21
v 1184 26
v 1185 19
v 1186 11
v 1187 21
v 1188 3
v 1189 26
v 1190 11
v 1191 22
v 1192 23
v 1193 3
v 1194 12
v 1195 11
v 1196 3
v 1197 0
v 1198 18
v 1199 24
v 1200 0
v 1201 18
v 1202 25
v 1203 3
v 1204 19
v 1205 18
v 1206 19
v 1207 20
v 1208 8
v 1209 7
v 1210 20
v 1211 9
v 1212 8
v 1213 21
v 1214 15
v 1215 7
v 1216 9
v 1217 24
v 1218 10
v 1219 14
v 1220 5
v 1221 11
v 1222 10
v 1223 6
v 1224 26
v 1225 14
v 1226 11
v 1227 11
v 1228 6
v 1229 8
v 1230 11
v 1231 11
v 1232 24
v 1233 13
v 1234 17
v 1235 25
v 1236 17
v 1237 14
v 1238 16
v 1239 9
v 1240 22
v 1241 24
v 1242 25
v 1243 11
v 1244 21
v 1245 17
v 1246 12
v 1247 5
v 1248 10
v 1249 17
v 1250 0
v 1251 23
v 1252 12
v 1253 25
v 1254 15
v 1255 24
v 1256 2
v 1257 8
v 1258 16
v 1259 25
v 1260 13
v 1261 12
v 1262 10
v 1263 16
v 1264 1
v 1265 12
v 1266 8
v 1267 18
v 1268 11
v 1269 0
v 1270 19
v 1271 17
v 1272 5
v 1273 25
v 1274 0
v 1275 3
v 1276 8
v 1277 8
v 1278 4
v 1279 3
v 1280 15
v 1281 15
v 1282 14
v 1283 9
v 1284 17
v 1285 15
v 1286 7
v 1287 16
v 1288 7
v 1289 13
v 1290 18
v 1291 3
v 1292 10
v 1293 26
v 1294 4
v 1295 12
v 1296 18
v 1297 22
v 1298 18
v 1299 6
v 1300 10
v 1301 12
v 1302 17
v 1303 25
v 1304 0
v 1305 21
v 1306 16
v 1307 7
v 1308 9
v 1309 7
v 1310 14
v 1311 14
v 1312 4
v 1313 0
v 1314 18
v 1315 26
v 1316 11
v 1317 16
v 1318 6
v 1319 13
v 1320 11
v 1321 25
v 1322 1
v 1323 5
v 1324 6
v 1325 18
v 1326 4
v 1327 8
v 1328 8
v 1329 9
v 1330 11
v 1331 20
v 1332 10
v 1333 24
v 1334 11
v 1335 25
v 1336 23
v 1337 5
v 1338 7
v 1339 13
v 1340 12
v 1341 15
v 1342 2
v 1343 26
v 1344 13
v 1345 5
v 1346 23
v 1347 18
v 1348 16
v 1349 15
v 1350 20
v 1351 0
v 1352 2
v 1353 11
v 1354 21
v 1355 2
v 1356 23
v 1357 3
v 1358 23
v 1359 12
v 1360 21
v 1361 10
v 1362 23
v 1363 14
v 1364 17
v 1365 16
v 1366 0
v 1367 19
v 1368 17
v 1369 17
v 1370 2
v 1371 17
v 1372 7
v 1373 4
v 1374 17
v 1375 17
v 1376 3
v 1377 6
v 1378 20
v 1379 4
v 1380 10
v 1381 1
v 1382 11
v 1383 1
v 1384 4
v 1385 14
v 1386 4
v 1387 14
v 1388 5
v 1389 2
v 1390 5
v 1391 26
v 1392 17
v 1393 22
v 1394 12
v 1395 8
v 1396 26
v 1397 1
v 1398 16
v 1399 13
v 1400 12
v 1401 23
v 1402 13
v 1403 19
v 1404 12
v 1405 20
v 1406 18
v 1407 25
v 1408 9
v 1409 17
v 1410 23
v 1411 11
v 1412 11
v 1413 15
v 1414 3
v 1415 15
v 1416 10
v 1417 12
v 1418 14
v 1419 11
v 1420 25
v 1421 12
v 1422 10
v 1423 2
v 1424 25
v 1425 12
v 1426 13
v 1427 10
v 1428 10
v 1429 3
v 1430 20
v 1431 20
v 1432 12
v 1433 23
v 1434 15
v 1435 7
v 1436 12
v 1437 13
v 1438 5
v 1439 13
v 1440 3
v 1441 2
v 1442 6
v 1443 20
v 1444 8
v 1445 19
v 1446 7
v 1447 19
v 1448 13
v 1449 10
v 1450 21
v 1451 4
v 1452 16
v 1453 9
v 1454 8
v 1455 4
v 1456 5
v 1457 16
v 1458 2
v 1459 0
v 1460 24
v 1461 11
v 1462 10
v 1463 10
v 1464 6
v 1465 16
v 1466 6
v 1467 23
v 1468 10
v 1469 2
v 1470 12
v 1471 2
v 1472 21
v 1473 5
v 1474 3
v 1475 10
v 1476 2
v 1477 9
v 1478 1
v 1479 7
v 1480 11
v 1481 12
v 1482 16
v 1483 17
v 1484 22
v 1485 10
v 1486 21
v 1487 14
v 1488 13
v 1489 19
v 1490 25
v 1491 20
v 1492 25
v 1493 13
v 1494 25
v 1495 18
v 1496 11
v 1497 26
v 1498 5
v 1499 7
v 1500 23
v 1501 23
v 1502 7
v 1503 13
v 1504 19
v 1505 20
v 1506 13
v 1507 12
v 1508 18
v 1509 19
v 1510 6
v 1511 3
v 1512 19
v 1513 0
v 1514 11
v 1515 15
v 1516 9
v 1517 15
v 1518 22
v 1519 5
v 1520 10
v 1521 1
v 1522 26
v 1523 22
v 1524 15
v 1525 13
v 1526 10
v 1527 11
v 1528 2
v 1529 17
v 1530 12
v 1531 1
v 1532 22
v 1533 18
v 1534 3
v 1535 25
v 1536 11
v 1537 24
v 1538 19
v 1539 1
v 1540 20
v 1541 2
v 1542 7
v 1543 14
v 1544 23
v 1545 12
v 1546 21
v 1547 20
v 1548 8
v 1549 18
v 1550 0
v 1551 12
v 1552 9
v 1553 4
v 1554 8
v 1555 18
v 1556 8
v 1557 4
v 1558 16
v 1559 7
v 1560 2
v 1561 11
v 1562 16
v 1563 22
v 1564 18
v 1565 7
v 1566 18
v 1567 2
v 1568 26
v 1569 6
v 1570 17
v 1571 23
v 1572 0
v 1573 4
v 1574 26
v 1575 13
v 1576 6
v 1577 12
v 1578 12
v 1579 5
v 1580 13
v 1581 1
v 1582 13
v 1583 4
v 1584 24
v 1585 26
v 1586 2
v 1587 11
v 1588 10
v 1589 25
v 1590 4
v 1591 14
v 1592 20
v 1593 5
v 1594 13
v 1595 21
v 1596 12
v 1597 6
v 1598 4
v 1599 22
v 1600 1
v 1601 7
v 1602 12
v 1603 4
v 1604 5
v 1605 8
v 1606 5
v 1607 4
v 1608 20
v 1609 12
v 1610 0
v 1611 4
v 1612 0
v 1613 16
v 1614 16
v 1615 14
v 1616 26
v 1617 19
v 1618 18
v 1619 7
v 1620 2
v 1621 10
v 1622 13
v 1623 26
v 1624 24
v 1625 25
v 1626 3
v 1627 26
v 1628 18
v 1629 8
v 1630 5
v 1631 11
v 1632 9
v 1633 9
v 1634 9
v 1635 18
v 1636 6
v 1637 4
v 1638 23
v 1639 7
v 1640 11
v 1641 9
v 1642 21
v 1643 11
v 1644 1
v 1645 13
v 1646 12
v 1647 7
v 1648 14
v 1649 5
v 1650 6
v 1651 0
v 1652 11
v 1653 20
v 1654 11
v 1655 16
v 1656 3
v 1657 1
v 1658 19
v 1659 25
v 1660 17
v 1661 21
v 1662 14
v 1663 4
v 1664 15
v 1665 0
v 1666 3
v 1667 19
v 1668 15
v 1669 6
v 1670 2
v 1671 23
v 1672 7
v 1673 13
v 1674 6
v 1675 6
v 1676 14
v 1677 21
v 1678 0
v 1679 15
v 1680 21
v 1681 9
v 1682 18
v 1683 5
v 1684 10
v 1685 4
v 1686 11
v 1687 20
v 1688 11
v 1689 22
v 1690 3
v 1691 17
v 1692 25
v 1693 2
v 1694 1
v 1695 14
v 1696 26
v 1697 6
v 1698 21
v 1699 11
v 1700 25
v 1701 0
v 1702 7
v 1703 2
v 1704 1
v 1705 0
v 1706 20
v 1707 0
v 1708 20
v 1709 11
v 1710 13
v 1711 11
v 1712 23
v 1713 4
v 1714 6
v 1715 17
v 1716 10
v 1717 2
v 1718 18
v 1719 1
v 1720 23
v 1721 22
v 1722 25
v 1723 5
v 1724 22
v 1725 1
v 1726 13
v 1727 7
v 1728 7
v 1729 12
v 1730 17
v 1731 16
v 1732 6
v 1733 14
v 1734 20
v 1735 20
v 1736 9
v 1737 25
v 1738 4
v 1739 4
v 1740 12
v 1741 9
v 1742 23
v 1743 2
v 1744 11
v 1745 22
v 1746 18
v 1747 16
v 1748 16
v 1749 17
v 1750 3
v 1751 0
v 1752 0
v 1753 7
v 1754 6
v 1755 5
v 1756 11
v 1757 1
v 1758 8
v 1759 22
v 1760 9
v 1761 0
v 1762 10
v 1763 13
v 1764 24
v 1765 2
v 1766 2
v 1767 10
v 1768 13
v 1769 3
v 1770 8
v 1771 12
v 1772 11
v 1773 3
v 1774 22
v 1775 22
v 1776 2
v 1777 9
v 1778 20
v 1779 19
v 1780 22
v 1781 15
v 1782 22
v 1783 1
v 1784 18
v 1785 0
v 1786 5
v 1787 8
v 1788 2
v 1789 0
v 1790 20
v 1791 8
v 1792 4
v 1793 18
v 1794 6
v 1795 10
v 1796 17
v 1797 8
v 1798 23
v 1799 11
v 1800 26
